
  12    4
  10   10   10   10

   0   0   0   0   0   5 2 3 4 6 8 
   3  10  10  10  10   2 7 5 
   1  10  10  10  10   2 11 7 
   4  10  10  10  10   2 11 7 
   4  10  10  10  10   3 11 10 9 
   2  10  10  10  10   3 11 10 9 
  10  10  10  10  10   2 10 9 
   4  10  10  10  10   1 9 
   6  10  10  10  10   1 12
   6  10  10  10  10   1 12
   5  10  10  10  10   1 12
   0   0   0   0   0   0 
